c colouring generated by benchmark framework
p edge 450 8260
v 1 4
v 2 9
v 3 4
v 4 5
v 5 11
v 6 1
v 7 19
v 8 15
v 9 24
v 10 4
v 11 7
v 12 16
v 13 2
v 14 2
v 15 19
v 16 12
v 17 10
v 18 2
v 19 17
v 20 1
v 21 17
v 22 14
v 23 10
v 24 1
v 25 0
v 26 5
v 27 19
v 28 0
v 29 7
v 30 6
v 31 22
v 32 3
v 33 4
v 34 2
v 35 1
v 36 0
v 37 10
v 38 14
v 39 21
v 40 7
v 41 22
v 42 0
v 43 16
v 44 10
v 45 6
v 46 8
v 47 7
v 48 13
v 49 0
v 50 4
v 51 6
v 52 11
v 53 7
v 54 14
v 55 7
v 56 9
v 57 1
v 58 12
v 59 4
v 60 8
v 61 24
v 62 3
v 63 2
v 64 2
v 65 8
v 66 21
v 67 10
v 68 0
v 69 8
v 70 20
v 71 20
v 72 0
v 73 24
v 74 23
v 75 5
v 76 8
v 77 12
v 78 17
v 79 14
v 80 18
v 81 6
v 82 3
v 83 11
v 84 0
v 85 7
v 86 23
v 87 2
v 88 8
v 89 6
v 90 12
v 91 4
v 92 16
v 93 4
v 94 9
v 95 2
v 96 12
v 97 14
v 98 10
v 99 6
v 100 11
v 101 4
v 102 11
v 103 13
v 104 5
v 105 18
v 106 15
v 107 0
v 108 15
v 109 5
v 110 5
v 111 23
v 112 21
v 113 15
v 114 6
v 115 3
v 116 6
v 117 4
v 118 6
v 119 22
v 120 12
v 121 11
v 122 4
v 123 23
v 124 0
v 125 1
v 126 6
v 127 0
v 128 15
v 129 1
v 130 4
v 131 18
v 132 3
v 133 21
v 134 11
v 135 1
v 136 7
v 137 24
v 138 20
v 139 0
v 140 3
v 141 9
v 142 17
v 143 13
v 144 3
v 145 5
v 146 2
v 147 7
v 148 2
v 149 20
v 150 4
v 151 13
v 152 13
v 153 6
v 154 3
v 155 21
v 156 2
v 157 15
v 158 2
v 159 3
v 160 0
v 161 5
v 162 5
v 163 16
v 164 18
v 165 4
v 166 12
v 167 21
v 168 3
v 169 17
v 170 1
v 171 0
v 172 3
v 173 11
v 174 0
v 175 18
v 176 4
v 177 22
v 178 24
v 179 18
v 180 3
v 181 4
v 182 9
v 183 13
v 184 1
v 185 1
v 186 16
v 187 12
v 188 9
v 189 11
v 190 2
v 191 15
v 192 17
v 193 17
v 194 11
v 195 0
v 196 0
v 197 20
v 198 14
v 199 11
v 200 13
v 201 4
v 202 0
v 203 24
v 204 10
v 205 9
v 206 22
v 207 22
v 208 1
v 209 8
v 210 23
v 211 0
v 212 5
v 213 6
v 214 12
v 215 22
v 216 9
v 217 2
v 218 22
v 219 13
v 220 17
v 221 23
v 222 1
v 223 13
v 224 19
v 225 19
v 226 4
v 227 10
v 228 16
v 229 17
v 230 10
v 231 11
v 232 11
v 233 12
v 234 22
v 235 4
v 236 16
v 237 2
v 238 16
v 239 20
v 240 10
v 241 24
v 242 15
v 243 2
v 244 2
v 245 21
v 246 20
v 247 19
v 248 19
v 249 13
v 250 15
v 251 6
v 252 5
v 253 10
v 254 19
v 255 5
v 256 7
v 257 1
v 258 11
v 259 13
v 260 8
v 261 23
v 262 2
v 263 17
v 264 15
v 265 24
v 266 18
v 267 9
v 268 14
v 269 9
v 270 2
v 271 22
v 272 11
v 273 22
v 274 3
v 275 7
v 276 6
v 277 22
v 278 19
v 279 3
v 280 8
v 281 9
v 282 3
v 283 2
v 284 24
v 285 3
v 286 22
v 287 3
v 288 10
v 289 5
v 290 5
v 291 13
v 292 23
v 293 14
v 294 22
v 295 8
v 296 5
v 297 4
v 298 1
v 299 16
v 300 8
v 301 11
v 302 21
v 303 0
v 304 11
v 305 3
v 306 20
v 307 19
v 308 6
v 309 9
v 310 9
v 311 6
v 312 14
v 313 2
v 314 17
v 315 1
v 316 17
v 317 0
v 318 16
v 319 15
v 320 12
v 321 6
v 322 0
v 323 20
v 324 5
v 325 0
v 326 18
v 327 16
v 328 9
v 329 7
v 330 7
v 331 2
v 332 22
v 333 12
v 334 8
v 335 7
v 336 13
v 337 2
v 338 2
v 339 7
v 340 5
v 341 11
v 342 21
v 343 24
v 344 0
v 345 4
v 346 2
v 347 24
v 348 24
v 349 5
v 350 6
v 351 14
v 352 18
v 353 19
v 354 1
v 355 14
v 356 10
v 357 7
v 358 18
v 359 21
v 360 21
v 361 16
v 362 11
v 363 7
v 364 15
v 365 18
v 366 19
v 367 8
v 368 10
v 369 22
v 370 8
v 371 12
v 372 4
v 373 1
v 374 10
v 375 8
v 376 1
v 377 23
v 378 14
v 379 5
v 380 14
v 381 21
v 382 3
v 383 15
v 384 23
v 385 9
v 386 10
v 387 2
v 388 23
v 389 0
v 390 1
v 391 5
v 392 1
v 393 2
v 394 20
v 395 18
v 396 23
v 397 19
v 398 11
v 399 3
v 400 18
v 401 19
v 402 8
v 403 4
v 404 21
v 405 20
v 406 21
v 407 20
v 408 20
v 409 17
v 410 7
v 411 9
v 412 1
v 413 19
v 414 5
v 415 11
v 416 22
v 417 3
v 418 10
v 419 23
v 420 6
v 421 15
v 422 3
v 423 1
v 424 16
v 425 15
v 426 19
v 427 13
v 428 0
v 429 11
v 430 24
v 431 22
v 432 12
v 433 9
v 434 0
v 435 17
v 436 20
v 437 13
v 438 0
v 439 8
v 440 21
v 441 20
v 442 12
v 443 14
v 444 18
v 445 1
v 446 15
v 447 22
v 448 1
v 449 20
v 450 2
